p td 22 177
2 1
3 1
4 2
4 3
4 1
5 3
5 4
5 1
5 2
6 1
6 5
6 4
6 2
6 3
7 2
7 4
7 6
8 4
8 6
8 2
8 3
8 7
9 5
9 7
9 1
9 6
9 4
9 3
9 8
9 2
10 6
10 7
10 9
10 3
10 1
11 4
11 9
11 10
11 7
11 8
11 1
11 6
11 3
11 5
11 2
12 4
12 5
12 11
12 2
12 10
12 6
12 9
13 4
13 12
13 9
13 7
13 5
13 2
13 3
13 8
13 1
14 1
14 4
14 2
14 5
14 9
14 6
14 10
14 7
14 3
14 13
14 12
14 8
15 12
15 10
15 2
15 4
15 9
15 13
15 3
15 6
16 3
16 13
16 5
16 14
16 2
16 6
16 8
16 4
16 9
16 12
16 10
16 15
16 11
16 1
17 2
17 9
17 11
17 1
17 8
17 5
17 4
17 6
17 7
17 16
17 10
17 12
17 13
18 9
18 13
18 4
18 1
18 14
18 16
18 3
18 15
18 2
18 12
19 12
19 6
19 3
19 16
19 8
19 1
19 14
19 18
19 5
19 17
19 4
19 10
19 9
19 13
20 11
20 6
20 13
20 3
20 16
20 9
20 7
20 18
20 17
20 2
20 15
20 12
20 14
20 19
20 8
21 10
21 5
21 18
21 17
21 16
21 3
21 9
21 1
21 6
21 19
21 7
21 15
21 11
21 12
22 5
22 16
22 20
22 13
22 11
22 7
22 8
22 19
22 6
22 3
22 1
22 17
22 4
22 10
22 15
22 9
